NAME          ClpDefau
ROWS
 N  OBJROW
 L  R_152_0
 L  R_152_1
 L  R_152_2
 L  R_152_3
 L  R_152_4
 L  R_152_5
 L  R_152_6
 L  R_152_7
 L  R_152_8
 L  R_152_9
 L  R_152_10
 L  R_152_11
 L  R_152_12
 L  R_152_13
 L  R_152_14
 L  R_152_15
COLUMNS
    x_0       OBJROW     -8.           R_152_2   88.         
    x_0       R_152_3   56.         
    x_1       OBJROW     -12.          R_152_2   23.         
    x_1       R_152_4   42.            R_152_5   66.         
    x_1       R_152_9   58.         
    x_2       OBJROW     -11.          R_152_2   97.         
    x_3       OBJROW     -47.       
    x_4       OBJROW     -22.          R_152_8   25.         
    x_4       R_152_10  74.            R_152_15  67.         
    x_5       OBJROW     -95.          R_152_0   35.         
    x_5       R_152_6   47.            R_152_9   15.         
    x_5       R_152_11  94.            R_152_14  21.         
    x_6       OBJROW     -86.          R_152_1   76.         
    x_6       R_152_2   32.            R_152_3   5.          
    x_6       R_152_4   79.            R_152_12  34.         
    x_7       OBJROW     -40.          R_152_4   58.         
RHS
    RHS       R_152_0   91.            R_152_1   37.         
    RHS       R_152_2   105.           R_152_3   27.         
    RHS       R_152_4   52.            R_152_5   24.         
    RHS       R_152_6   36.            R_152_7   40.         
    RHS       R_152_8   41.            R_152_9   32.         
    RHS       R_152_10  78.            R_152_11  101.        
    RHS       R_152_12  49.            R_152_13  85.         
    RHS       R_152_14  24.            R_152_15  51.         
BOUNDS
 UI BOUND     x_0       100.        
 UI BOUND     x_1       100.        
 UI BOUND     x_2       100.        
 UI BOUND     x_3       100.        
 UI BOUND     x_4       100.        
 UI BOUND     x_5       100.        
 UI BOUND     x_6       100.        
 UI BOUND     x_7       100.        
ENDATA
